CPXPARAM_MIP_Limits_ProbeTime#P28#1#CPXPARAM_MIP_Strategy_Probe#P42#1#2.491221#0.999999
CPXPARAM_MIP_Limits_ProbeTime#P28#2#CPXPARAM_MIP_Strategy_Probe#P42#1#2.491218#0.999998
CPXPARAM_MIP_Limits_ProbeTime#P28#5#CPXPARAM_MIP_Strategy_Probe#P42#1#2.491214#0.999997
CPXPARAM_MIP_Limits_ProbeTime#P28#10#CPXPARAM_MIP_Strategy_Probe#P42#1#2.491214#0.999997
CPXPARAM_MIP_Limits_ProbeTime#P28#20#CPXPARAM_MIP_Strategy_Probe#P42#1#2.491222#1.000000
CPXPARAM_MIP_Limits_ProbeTime#P28#30#CPXPARAM_MIP_Strategy_Probe#P42#1#2.491215#0.999997
CPXPARAM_MIP_Limits_ProbeTime#P28#40#CPXPARAM_MIP_Strategy_Probe#P42#1#2.491218#0.999998
CPXPARAM_MIP_Limits_ProbeTime#P28#50#CPXPARAM_MIP_Strategy_Probe#P42#1#2.491210#0.999995
